(set-option :produce-models true); benchmark generated from python API
(set-info :status unknown)
(declare-fun l_1_0_8 () Real)
(declare-fun l_1_0_7 () Real)
(declare-fun l_1_0_6 () Real)
(declare-fun l_1_0_4 () Real)
(declare-fun l_1_0_2 () Real)
(declare-fun l_1_0_15 () Real)
(declare-fun l_1_0_14 () Real)
(declare-fun l_1_0_13 () Real)
(declare-fun l_1_0_10 () Real)
(declare-fun _a_0_ () Real)
(declare-fun l_1_0_17 () Real)
(declare-fun l_1_0_16 () Real)
(declare-fun _a_1_ () Real)
(declare-fun l_1_0_9 () Real)
(declare-fun l_1_0_5 () Real)
(declare-fun l_1_0_3 () Real)
(declare-fun l_1_0_20 () Real)
(declare-fun l_1_0_19 () Real)
(declare-fun l_1_0_18 () Real)
(declare-fun l_1_0_12 () Real)
(declare-fun l_1_0_11 () Real)
(declare-fun l_1_0_1 () Real)
(declare-fun _a_2_ () Real)
(declare-fun l_1_1_6 () Real)
(declare-fun l_1_1_5 () Real)
(declare-fun l_1_1_4 () Real)
(declare-fun l_1_1_2 () Real)
(declare-fun l_1_1_15 () Real)
(declare-fun l_1_1_14 () Real)
(declare-fun l_1_1_13 () Real)
(declare-fun l_1_1_12 () Real)
(declare-fun l_1_1_11 () Real)
(declare-fun l_1_1_10 () Real)
(declare-fun l_1_1_9 () Real)
(declare-fun l_1_1_8 () Real)
(declare-fun l_1_1_7 () Real)
(declare-fun l_1_1_3 () Real)
(declare-fun l_1_1_1 () Real)
(declare-fun l_1_1_18 () Real)
(declare-fun l_1_1_16 () Real)
(declare-fun l_1_1_17 () Real)
(declare-fun l_1_1_20 () Real)
(declare-fun l_1_1_19 () Real)
(declare-fun l_1_2_8 () Real)
(declare-fun l_1_2_7 () Real)
(declare-fun l_1_2_5 () Real)
(declare-fun l_1_2_3 () Real)
(declare-fun l_1_2_15 () Real)
(declare-fun l_1_2_14 () Real)
(declare-fun l_1_2_13 () Real)
(declare-fun l_1_2_12 () Real)
(declare-fun l_1_2_11 () Real)
(declare-fun l_1_2_10 () Real)
(declare-fun l_1_2_9 () Real)
(declare-fun l_1_2_6 () Real)
(declare-fun l_1_2_4 () Real)
(declare-fun l_1_2_2 () Real)
(declare-fun l_1_2_1 () Real)
(declare-fun l_1_2_17 () Real)
(declare-fun l_1_2_16 () Real)
(declare-fun l_1_2_20 () Real)
(declare-fun l_1_2_19 () Real)
(declare-fun l_1_2_18 () Real)
(assert
 (let ((?x49 (* (/ 99.0 100.0) l_1_0_6)))
 (let ((?x50 (* (/ 99.0 100.0) l_1_0_4)))
 (let ((?x52 (* (/ 99.0 100.0) l_1_0_2)))
 (let ((?x1241 (* l_1_0_15 l_1_0_15)))
 (let ((?x55 (- (- (- (- _a_0_ (* (/ 9801.0 10000.0) l_1_0_10)) l_1_0_13) l_1_0_14) ?x1241)))
 (= (- (- (+ (+ (+ ?x55 ?x52) ?x50) ?x49) l_1_0_7) l_1_0_8) 0.0)))))))
(assert
 (let ((?x442 (* l_1_0_17 l_1_0_17)))
 (let ((?x890 (- (- (- _a_1_ (* (/ 299.0 50.0) l_1_0_10)) (* l_1_0_16 l_1_0_16)) ?x442)))
 (= (+ (+ (+ ?x890 l_1_0_2) l_1_0_4) l_1_0_6) 0.0))))
(assert
 (let ((?x1070 (* (/ 99.0 100.0) l_1_0_9)))
 (let ((?x993 (* l_1_0_20 l_1_0_20)))
 (let ((?x1134 (* l_1_0_19 l_1_0_19)))
 (let ((?x861 (* l_1_0_18 l_1_0_18)))
 (let ((?x1131 (* (/ 1.0 25.0) l_1_0_12)))
 (let ((?x1066 (- (- (- (+ (- _a_2_ (* (/ 99.0 100.0) l_1_0_1)) l_1_0_11) ?x1131) ?x861) ?x1134)))
 (= (- (+ (+ (- ?x1066 ?x993) l_1_0_3) l_1_0_5) ?x1070) 0.0))))))))
(assert
 (let ((?x967 (* (/ 2.0 5.0) l_1_0_9)))
 (let ((?x997 (- (- (* (- (/ 2.0 5.0)) l_1_0_1) (* (* 2.0 l_1_0_16) l_1_0_18)) (* (* 2.0 l_1_0_17) l_1_0_19))))
 (= (- ?x997 ?x967) 0.0))))
(assert
 (= (+ (* 2.0 l_1_0_1) (* 2.0 l_1_0_9)) 0.0))
(assert
 (= (+ (* (/ 1.0 5.0) l_1_0_1) (* (/ 1.0 5.0) l_1_0_9)) 0.0))
(assert
 (= (- (- l_1_0_1) l_1_0_9) 0.0))
(assert
 (let ((?x852 (* (/ 99.0 500.0) l_1_0_9)))
 (let ((?x849 (* (/ 1.0 5.0) l_1_0_5)))
 (let ((?x847 (* (/ 1.0 5.0) l_1_0_3)))
 (let ((?x846 (- (- (* (/ 99.0 500.0) l_1_0_1) (* (/ 1.0 5.0) l_1_0_11)) (* (* 2.0 l_1_0_15) l_1_0_18))))
 (= (+ (- (- ?x846 ?x847) ?x849) ?x852) 0.0))))))
(assert
 (let ((?x36 (* 2.0 l_1_0_6)))
 (let ((?x611 (* 2.0 l_1_0_4)))
 (let ((?x817 (* 2.0 l_1_0_2)))
 (let ((?x35 (- (- (* (/ 99.0 25.0) l_1_0_10) (* (* 2.0 l_1_0_15) l_1_0_16)) ?x817)))
 (= (- (- ?x35 ?x611) ?x36) 0.0))))))
(assert
 (= (* 4.0 l_1_0_10) 0.0))
(assert
 (= (- l_1_0_10) 0.0))
(assert
 (= (* (/ 2.0 5.0) l_1_0_12) 0.0))
(assert
 (= (- l_1_0_12) 0.0))
(assert
 (>= l_1_0_1 0.0))
(assert
 (>= l_1_0_2 0.0))
(assert
 (>= l_1_0_3 0.0))
(assert
 (>= l_1_0_4 0.0))
(assert
 (>= l_1_0_5 0.0))
(assert
 (>= l_1_0_6 0.0))
(assert
 (>= l_1_0_7 0.0))
(assert
 (>= l_1_0_8 0.0))
(assert
 (>= l_1_0_9 0.0))
(assert
 (>= l_1_0_10 0.0))
(assert
 (>= l_1_0_11 0.0))
(assert
 (>= l_1_0_12 0.0))
(assert
 (>= l_1_0_13 0.0))
(assert
 (>= l_1_0_14 0.0))
(assert
 (>= l_1_0_15 0.0))
(assert
 (>= l_1_0_17 0.0))
(assert
 (>= l_1_0_20 0.0))
(assert
 (let ((?x626 (* 4.0 l_1_1_6)))
 (let ((?x621 (* l_1_1_15 l_1_1_15)))
 (let ((?x619 (* 2.0 l_1_1_13)))
 (let ((?x616 (* 2.0 l_1_1_12)))
 (let ((?x612 (* 2.0 l_1_1_10)))
 (let ((?x609 (* _a_0_ l_1_1_9)))
 (let ((?x661 (* _a_0_ l_1_1_7)))
 (let ((?x608 (+ (- (- (* (* 2.0 _a_0_) l_1_1_1) (* _a_0_ l_1_1_3)) ?x661) (* (* 2.0 _a_0_) l_1_1_8))))
 (let ((?x620 (- (+ (+ (- (+ (- ?x608 ?x609) ?x612) l_1_1_11) ?x616) ?x619) l_1_1_14)))
 (let ((?x447 (- (- (- (- ?x620 ?x621) l_1_1_2) l_1_1_4) (* (* l_1_1_5 _a_0_) _a_0_))))
 (= (+ (- ?x447 ?x626) 2.0) 0.0))))))))))))
(assert
 (= (- (* (* (- 2.0) l_1_1_15) l_1_1_18) 1.0) 0.0))
(assert
 (= (- (* (* (- 2.0) l_1_1_15) l_1_1_16) 2.0) 0.0))
(assert
 (let ((?x626 (* 4.0 l_1_1_6)))
 (let ((?x423 (* l_1_1_17 l_1_1_17)))
 (let ((?x421 (* l_1_1_16 l_1_1_16)))
 (let ((?x406 (* _a_1_ l_1_1_9)))
 (let ((?x400 (* _a_1_ l_1_1_7)))
 (let ((?x433 (* _a_1_ l_1_1_3)))
 (let ((?x428 (- (- (- (* (* (* (- 2.0) _a_0_) _a_1_) l_1_1_5) ?x433) ?x400) ?x406)))
 (let ((?x419 (- (- (- ?x428 (* l_1_1_1 (- _a_0_ (* 2.0 _a_1_)))) l_1_1_10) l_1_1_12)))
 (let ((?x390 (- (+ (- (- (- ?x419 l_1_1_13) ?x421) ?x423) ?x626) (* l_1_1_8 (- _a_0_ (* 2.0 _a_1_))))))
 (= ?x390 0.0)))))))))))
(assert
 (let ((?x626 (* 4.0 l_1_1_6)))
 (let ((?x193 (* l_1_1_20 l_1_1_20)))
 (let ((?x248 (* l_1_1_19 l_1_1_19)))
 (let ((?x246 (* l_1_1_18 l_1_1_18)))
 (let ((?x272 (* _a_2_ l_1_1_9)))
 (let ((?x269 (* _a_2_ l_1_1_7)))
 (let ((?x267 (* _a_2_ l_1_1_3)))
 (let ((?x273 (- (- (- (* (* (* (- 2.0) _a_0_) _a_2_) l_1_1_5) ?x267) ?x269) ?x272)))
 (let ((?x243 (- (- (- ?x273 (* l_1_1_1 (- _a_0_ (* 2.0 _a_2_)))) l_1_1_10) l_1_1_12)))
 (let ((?x196 (- (+ (- (- (- (- ?x243 l_1_1_13) ?x246) ?x248) ?x193) ?x626) (* l_1_1_8 (- _a_0_ (* 2.0 _a_2_))))))
 (= ?x196 0.0))))))))))))
(assert
 (let ((?x1157 (- (- (* (- _a_1_) l_1_1_1) (* _a_1_ l_1_1_8)) (* (* l_1_1_5 _a_1_) _a_1_))))
 (= (- ?x1157 l_1_1_6) 0.0)))
(assert
 (let ((?x1034 (* 2.0 l_1_1_6)))
 (let ((?x1046 (- (* (* (* (- 2.0) _a_1_) _a_2_) l_1_1_5) (* l_1_1_1 (+ _a_1_ _a_2_)))))
 (= (- (- ?x1046 ?x1034) (* l_1_1_8 (+ _a_1_ _a_2_))) 0.0))))
(assert
 (let ((?x767 (- (- (* (- _a_2_) l_1_1_1) (* _a_2_ l_1_1_8)) (* (* l_1_1_5 _a_2_) _a_2_))))
 (= (- ?x767 l_1_1_6) 0.0)))
(assert
 (let ((?x591 (- (* (* (- 2.0) l_1_1_16) l_1_1_18) (* (* 2.0 l_1_1_17) l_1_1_19))))
 (= ?x591 0.0)))
(assert
 (>= l_1_1_1 0.0))
(assert
 (>= l_1_1_2 0.0))
(assert
 (>= l_1_1_3 0.0))
(assert
 (>= l_1_1_4 0.0))
(assert
 (>= l_1_1_5 0.0))
(assert
 (>= l_1_1_6 0.0))
(assert
 (>= l_1_1_7 0.0))
(assert
 (>= l_1_1_8 0.0))
(assert
 (>= l_1_1_9 0.0))
(assert
 (>= l_1_1_10 0.0))
(assert
 (>= l_1_1_11 0.0))
(assert
 (>= l_1_1_12 0.0))
(assert
 (>= l_1_1_13 0.0))
(assert
 (>= l_1_1_14 0.0))
(assert
 (>= l_1_1_15 0.0))
(assert
 (>= l_1_1_17 0.0))
(assert
 (>= l_1_1_20 0.0))
(assert
 (let ((?x963 (* 2.0 l_1_2_8)))
 (let ((?x955 (* 2.0 l_1_2_7)))
 (let ((?x953 (* l_1_2_15 l_1_2_15)))
 (let ((?x1101 (* 2.0 l_1_2_13)))
 (let ((?x699 (* 4.0 l_1_2_10)))
 (let ((?x697 (* _a_0_ l_1_2_9)))
 (let ((?x695 (* _a_0_ l_1_2_6)))
 (let ((?x831 (- (- (* (- _a_0_) l_1_2_1) (* (* 2.0 _a_0_) l_1_2_2)) (* (* 2.0 _a_0_) l_1_2_4))))
 (let ((?x1105 (- (- (- (+ (- (- ?x831 ?x695) ?x697) _a_0_) ?x699) l_1_2_11) (* (* l_1_2_12 _a_0_) _a_0_))))
 (let ((?x961 (- (- (- (- (- (- ?x1105 ?x1101) l_1_2_14) ?x953) l_1_2_3) l_1_2_5) ?x955)))
 (= (- ?x961 ?x963) 0.0))))))))))))
(assert
 (let ((?x760 (* (/ 9.0 25.0) _a_2_)))
 (let ((?x1162 (* (/ 1.0 4.0) _a_1_)))
 (let ((?x729 (- (+ (+ (+ (* _a_1_ l_1_2_2) (* _a_1_ l_1_2_4)) ?x1162) ?x760) l_1_2_10)))
 (= (- ?x729 (* (* l_1_2_12 _a_1_) _a_1_)) 0.0)))))
(assert
 (let ((?x664 (* 2.0 l_1_2_10)))
 (let ((?x760 (* (/ 9.0 25.0) _a_2_)))
 (let ((?x668 (- (+ (* (* (* (- 2.0) _a_1_) _a_2_) l_1_2_12) (* (/ 2.0 5.0) _a_1_)) ?x760)))
 (let ((?x328 (- (- (- ?x668 ?x664) (* l_1_2_2 (- (- _a_1_) _a_2_))) (* l_1_2_4 (- (- _a_1_) _a_2_)))))
 (= ?x328 0.0))))))
(assert
 (let ((?x226 (* (/ 9.0 100.0) _a_2_)))
 (let ((?x1186 (* _a_2_ l_1_2_4)))
 (let ((?x230 (- (+ (+ (+ (* (/ 4.0 25.0) _a_1_) (* _a_2_ l_1_2_2)) ?x1186) ?x226) l_1_2_10)))
 (= (- ?x230 (* (* l_1_2_12 _a_2_) _a_2_)) 0.0)))))
(assert
 (let ((?x976 (* l_1_2_17 l_1_2_17)))
 (let ((?x185 (* l_1_2_16 l_1_2_16)))
 (let ((?x699 (* 4.0 l_1_2_10)))
 (let ((?x414 (* _a_1_ l_1_2_9)))
 (let ((?x417 (* _a_1_ l_1_2_6)))
 (let ((?x161 (* _a_1_ l_1_2_1)))
 (let ((?x415 (- (- (- (* (* (* (- 2.0) _a_0_) _a_1_) l_1_2_12) ?x161) ?x417) ?x414)))
 (let ((?x116 (- (- (- (+ (+ ?x415 ?x699) l_1_2_13) ?x185) ?x976) (* l_1_2_2 (+ (- _a_0_) (* 2.0 _a_1_))))))
 (let ((?x539 (+ (- ?x116 (* l_1_2_4 (+ (- _a_0_) (* 2.0 _a_1_)))) l_1_2_7)))
 (= (+ ?x539 l_1_2_8) 0.0)))))))))))
(assert
 (let ((?x548 (* l_1_2_20 l_1_2_20)))
 (let ((?x486 (* l_1_2_19 l_1_2_19)))
 (let ((?x650 (* l_1_2_18 l_1_2_18)))
 (let ((?x699 (* 4.0 l_1_2_10)))
 (let ((?x115 (* _a_2_ l_1_2_9)))
 (let ((?x597 (* _a_2_ l_1_2_6)))
 (let ((?x600 (* _a_2_ l_1_2_1)))
 (let ((?x110 (- (- (- (* (* (* (- 2.0) _a_0_) _a_2_) l_1_2_12) ?x600) ?x597) ?x115)))
 (let ((?x546 (- (- (- (+ (+ ?x110 ?x699) l_1_2_13) ?x650) ?x486) (* l_1_2_2 (+ (- _a_0_) (* 2.0 _a_2_))))))
 (let ((?x339 (+ (- (- ?x546 ?x548) (* l_1_2_4 (+ (- _a_0_) (* 2.0 _a_2_)))) l_1_2_7)))
 (= (+ ?x339 l_1_2_8) 0.0))))))))))))
(assert
 (= (* (* (- 2.0) l_1_2_15) l_1_2_16) 0.0))
(assert
 (= (* (* (- 2.0) l_1_2_15) l_1_2_18) 0.0))
(assert
 (let ((?x297 (- (* (* (- 2.0) l_1_2_16) l_1_2_18) (* (* 2.0 l_1_2_17) l_1_2_19))))
 (= ?x297 0.0)))
(assert
 (>= l_1_2_1 0.0))
(assert
 (>= l_1_2_2 0.0))
(assert
 (>= l_1_2_3 0.0))
(assert
 (>= l_1_2_4 0.0))
(assert
 (>= l_1_2_5 0.0))
(assert
 (>= l_1_2_6 0.0))
(assert
 (>= l_1_2_7 0.0))
(assert
 (>= l_1_2_8 0.0))
(assert
 (>= l_1_2_9 0.0))
(assert
 (>= l_1_2_10 0.0))
(assert
 (>= l_1_2_11 0.0))
(assert
 (>= l_1_2_12 0.0))
(assert
 (>= l_1_2_13 0.0))
(assert
 (>= l_1_2_14 0.0))
(assert
 (>= l_1_2_15 0.0))
(assert
 (>= l_1_2_17 0.0))
(assert
 (>= l_1_2_20 0.0))
(check-sat)
(get-model)